Using license file /home/benedond/gurobi.lic
Using gurobi.env file
Set parameter Threads to value 1
Academic license - for non-commercial use only
Changed value of parameter TimeLimit to 300.0
   Prev: inf  Min: 0.0  Max: inf  Default: inf
Gurobi Optimizer version 9.0.1 build v9.0.1rc0 (linux64)
Optimize a model with 1350 rows, 1275 columns and 5073 nonzeros
Model fingerprint: 0x24607d8f
Variable types: 25 continuous, 1250 integer (1250 binary)
Coefficient statistics:
  Matrix range     [1e+00, 5e+02]
  Objective range  [3e+01, 5e+02]
  Bounds range     [1e+00, 1e+00]
  RHS range        [1e+00, 1e+03]
Presolve removed 525 rows and 525 columns
Presolve time: 0.35s
Presolved: 825 rows, 750 columns, 2973 nonzeros
Variable types: 25 continuous, 725 integer (725 binary)

Root relaxation: objective 1.302000e+03, 477 iterations, 0.01 seconds

    Nodes    |    Current Node    |     Objective Bounds      |     Work
 Expl Unexpl |  Obj  Depth IntInf | Incumbent    BestBd   Gap | It/Node Time

     0     0 1302.00000    0   28          - 1302.00000      -     -    0s
H    0     0                    3778.0000000 1302.00000  65.5%     -    0s
H    0     0                    3226.0000000 1302.00000  59.6%     -    0s
     0     0 1302.00000    0   40 3226.00000 1302.00000  59.6%     -    0s
     0     0 1302.00000    0   55 3226.00000 1302.00000  59.6%     -    0s
H    0     0                    2787.0000000 1302.00000  53.3%     -    0s
     0     0 1302.00000    0   50 2787.00000 1302.00000  53.3%     -    0s
H    0     0                    2498.0000000 1302.00000  47.9%     -    0s
     0     0 1302.00000    0   50 2498.00000 1302.00000  47.9%     -    0s
     0     0 1302.00000    0   52 2498.00000 1302.00000  47.9%     -    0s
     0     0 1302.00000    0   52 2498.00000 1302.00000  47.9%     -    0s
H    0     0                    2338.0000000 1302.00000  44.3%     -    0s
H    0     0                    2183.0000000 1302.00000  40.4%     -    0s
     0     2 1302.00000    0   52 2183.00000 1302.00000  40.4%     -    0s
H  162   131                    2181.0000000 1325.01376  39.2%   4.7    1s
H  189   150                    2171.0000000 1325.01376  39.0%   5.6    1s
H  248   191                    2146.0000000 1326.91878  38.2%   5.8    1s
H  411   318                    2110.0000000 1343.00000  36.4%   6.2    1s
H  688   431                    2053.0000000 1343.00000  34.6%   9.1    1s
H 1983   826                    2023.0000000 1471.40525  27.3%   8.5    2s
* 4875  1905              42    2020.0000000 1611.00000  20.2%   8.8    3s
H 4924  1895                    2004.0000000 1611.00000  19.6%   8.8    4s
  6371  2242 1762.16908   86   37 2004.00000 1631.87787  18.6%   9.3    5s
 13726  1081 1923.09828   72   24 2004.00000 1868.84604  6.74%  11.2   10s

Explored 15750 nodes (175462 simplex iterations) in 11.47 seconds
Thread count was 1 (of 4 available processors)

Solution count 10: 2004 2020 2023 ... 2338

Optimal solution found (tolerance 1.00e-04)
Best objective 2.004000000000e+03, best bound 2.004000000000e+03, gap 0.0000%
